c File: data_files/evolved_graphs/g6824.col
c
c Auto generated graph
c
p edge 100 579
e 1 6
e 1 30
e 1 37
e 1 46
e 1 52
e 1 62
e 1 67
e 1 72
e 1 78
e 1 82
e 1 88
e 1 91
e 2 17
e 2 20
e 2 24
e 2 25
e 2 43
e 2 46
e 2 53
e 2 66
e 2 76
e 2 79
e 2 81
e 2 82
e 2 83
e 2 88
e 3 21
e 3 34
e 3 36
e 3 38
e 3 49
e 3 56
e 3 57
e 3 60
e 3 71
e 3 86
e 3 88
e 3 97
e 4 10
e 4 22
e 4 23
e 4 34
e 4 36
e 4 43
e 4 50
e 4 74
e 4 80
e 4 83
e 4 91
e 5 11
e 5 16
e 5 24
e 5 29
e 5 36
e 5 42
e 5 46
e 5 47
e 5 48
e 5 64
e 5 73
e 5 75
e 5 78
e 6 22
e 6 32
e 6 40
e 6 50
e 6 54
e 6 60
e 6 66
e 6 72
e 6 88
e 6 90
e 6 92
e 7 9
e 7 21
e 7 25
e 7 42
e 7 50
e 7 52
e 7 53
e 7 54
e 7 57
e 7 67
e 7 82
e 7 85
e 7 89
e 7 90
e 8 28
e 8 53
e 8 56
e 8 61
e 8 64
e 8 67
e 8 69
e 8 74
e 8 75
e 8 90
e 8 93
e 8 100
e 9 29
e 9 38
e 9 48
e 9 63
e 9 68
e 9 74
e 9 78
e 9 79
e 9 86
e 9 89
e 9 93
e 9 99
e 10 15
e 10 18
e 10 33
e 10 40
e 10 42
e 10 51
e 10 52
e 10 64
e 10 75
e 10 88
e 10 97
e 10 99
e 11 14
e 11 25
e 11 27
e 11 34
e 11 35
e 11 46
e 11 54
e 11 67
e 11 79
e 11 80
e 11 99
e 12 13
e 12 25
e 12 26
e 12 27
e 12 30
e 12 37
e 12 43
e 12 48
e 12 55
e 12 60
e 12 96
e 12 99
e 13 24
e 13 40
e 13 43
e 13 44
e 13 53
e 13 55
e 13 69
e 13 72
e 13 81
e 13 91
e 14 15
e 14 19
e 14 20
e 14 29
e 14 39
e 14 41
e 14 42
e 14 59
e 14 66
e 14 67
e 14 86
e 14 97
e 15 23
e 15 40
e 15 60
e 15 66
e 15 71
e 15 78
e 15 79
e 15 81
e 15 89
e 15 94
e 16 23
e 16 24
e 16 33
e 16 35
e 16 37
e 16 56
e 16 60
e 16 72
e 16 85
e 16 87
e 16 100
e 17 24
e 17 39
e 17 49
e 17 55
e 17 61
e 17 62
e 17 70
e 17 75
e 17 88
e 18 48
e 18 54
e 18 58
e 18 59
e 18 62
e 18 63
e 18 76
e 18 84
e 19 23
e 19 29
e 19 32
e 19 38
e 19 43
e 19 51
e 19 59
e 19 69
e 19 71
e 19 77
e 19 94
e 19 95
e 20 38
e 20 44
e 20 48
e 20 52
e 20 66
e 20 75
e 20 80
e 20 81
e 20 98
e 21 25
e 21 28
e 21 30
e 21 39
e 21 45
e 21 50
e 21 59
e 21 60
e 21 73
e 21 75
e 21 79
e 22 29
e 22 30
e 22 42
e 22 43
e 22 44
e 22 46
e 22 58
e 22 60
e 22 61
e 23 40
e 23 41
e 23 43
e 23 54
e 23 56
e 23 72
e 23 79
e 23 96
e 23 98
e 24 31
e 24 42
e 24 45
e 24 51
e 24 52
e 24 55
e 24 65
e 24 74
e 25 29
e 25 40
e 25 41
e 25 52
e 25 56
e 25 59
e 25 76
e 25 80
e 25 100
e 26 27
e 26 29
e 26 36
e 26 45
e 26 46
e 26 47
e 26 51
e 26 52
e 26 53
e 26 61
e 26 62
e 26 97
e 27 33
e 27 45
e 27 46
e 27 49
e 27 61
e 27 64
e 27 68
e 27 80
e 27 95
e 28 32
e 28 41
e 28 44
e 28 45
e 28 46
e 28 51
e 28 56
e 28 63
e 28 77
e 29 32
e 29 59
e 29 72
e 29 86
e 29 100
e 30 33
e 30 35
e 30 42
e 30 47
e 30 82
e 30 91
e 30 100
e 31 33
e 31 35
e 31 43
e 31 46
e 31 50
e 31 57
e 31 65
e 31 69
e 32 34
e 32 37
e 32 47
e 32 55
e 32 57
e 32 64
e 32 79
e 32 96
e 32 97
e 33 43
e 33 52
e 33 55
e 33 59
e 33 79
e 33 85
e 34 41
e 34 45
e 34 52
e 34 60
e 34 82
e 34 84
e 34 93
e 35 40
e 35 44
e 35 51
e 35 54
e 35 61
e 35 66
e 35 75
e 36 42
e 36 49
e 36 55
e 36 63
e 36 66
e 36 67
e 36 69
e 36 72
e 36 79
e 36 95
e 37 38
e 37 39
e 37 51
e 37 57
e 37 64
e 37 84
e 37 89
e 37 91
e 38 40
e 38 42
e 38 59
e 38 60
e 38 65
e 38 70
e 38 83
e 39 44
e 39 50
e 39 62
e 39 64
e 39 91
e 39 92
e 39 94
e 40 44
e 40 77
e 40 92
e 41 47
e 41 63
e 41 70
e 41 87
e 42 54
e 42 64
e 42 70
e 42 86
e 43 56
e 43 76
e 43 92
e 43 93
e 44 49
e 44 51
e 44 61
e 44 78
e 44 83
e 44 92
e 45 68
e 45 73
e 45 76
e 45 77
e 45 83
e 45 89
e 45 93
e 45 95
e 46 50
e 46 57
e 46 82
e 46 85
e 46 92
e 46 98
e 47 48
e 47 53
e 47 74
e 47 92
e 47 98
e 48 49
e 48 50
e 48 62
e 48 77
e 49 64
e 49 69
e 49 78
e 49 80
e 49 97
e 50 53
e 50 95
e 50 96
e 50 99
e 51 52
e 51 58
e 51 71
e 51 74
e 51 90
e 52 94
e 53 58
e 53 61
e 53 70
e 53 71
e 53 83
e 54 62
e 54 66
e 54 71
e 54 83
e 55 62
e 55 95
e 55 99
e 56 62
e 56 68
e 56 97
e 56 100
e 57 64
e 57 69
e 57 70
e 57 71
e 57 85
e 57 89
e 57 98
e 58 65
e 58 70
e 58 71
e 58 80
e 58 84
e 58 85
e 58 100
e 59 69
e 59 72
e 59 74
e 59 82
e 59 85
e 60 61
e 60 65
e 60 76
e 60 94
e 61 62
e 61 76
e 62 70
e 62 87
e 63 75
e 63 76
e 63 91
e 65 67
e 65 83
e 65 94
e 65 96
e 65 97
e 65 98
e 66 70
e 66 74
e 66 78
e 66 94
e 66 95
e 67 72
e 67 76
e 67 89
e 67 99
e 68 70
e 68 72
e 68 73
e 68 74
e 68 81
e 68 94
e 69 73
e 69 90
e 69 93
e 69 100
e 70 73
e 70 78
e 71 80
e 71 81
e 71 92
e 72 81
e 72 88
e 73 75
e 73 76
e 73 79
e 73 90
e 74 90
e 74 98
e 75 80
e 75 88
e 75 89
e 76 86
e 77 83
e 77 85
e 77 86
e 77 88
e 77 89
e 77 90
e 77 94
e 78 83
e 78 95
e 79 84
e 79 93
e 79 96
e 80 89
e 80 96
e 81 84
e 81 87
e 81 89
e 81 90
e 82 85
e 82 94
e 82 96
e 83 88
e 83 93
e 83 99
e 84 87
e 84 93
e 84 95
e 84 98
e 85 92
e 85 97
e 86 88
e 86 96
e 86 98
e 87 90
e 87 92
e 87 95
e 87 96
e 90 91
e 90 96
e 90 97
e 91 97
e 91 98
e 92 93
e 93 100
e 95 98
e 98 99
e 98 100
e 99 100
